p edge 100 443
e 31 1
e 37 1
e 40 1
e 63 1
e 99 1
e 7 2
e 19 2
e 40 2
e 47 2
e 50 2
e 52 2
e 57 2
e 60 2
e 61 2
e 77 2
e 12 3
e 18 3
e 21 3
e 28 3
e 32 3
e 33 3
e 37 3
e 38 3
e 51 3
e 54 3
e 55 3
e 83 3
e 86 3
e 92 3
e 96 3
e 21 4
e 27 4
e 28 4
e 30 4
e 57 4
e 65 4
e 66 4
e 67 4
e 70 4
e 77 4
e 84 4
e 98 4
e 24 5
e 34 5
e 45 5
e 46 5
e 47 5
e 50 5
e 60 5
e 67 5
e 89 5
e 96 5
e 17 6
e 57 6
e 85 6
e 90 6
e 18 7
e 30 7
e 32 7
e 49 7
e 57 7
e 69 7
e 77 7
e 83 7
e 94 7
e 58 8
e 70 8
e 99 8
e 27 9
e 29 9
e 43 9
e 45 9
e 56 9
e 70 9
e 81 9
e 96 9
e 20 10
e 33 10
e 51 10
e 53 10
e 71 10
e 72 10
e 95 10
e 18 11
e 19 11
e 22 11
e 23 11
e 26 11
e 65 11
e 84 11
e 96 11
e 17 12
e 18 12
e 23 12
e 31 12
e 33 12
e 42 12
e 51 12
e 56 12
e 63 12
e 70 12
e 73 12
e 74 12
e 77 12
e 79 12
e 83 12
e 33 13
e 40 13
e 53 13
e 54 13
e 74 13
e 87 13
e 88 13
e 89 13
e 27 14
e 57 14
e 80 14
e 81 14
e 90 14
e 91 14
e 99 14
e 31 15
e 40 15
e 50 15
e 65 15
e 94 15
e 17 16
e 20 16
e 24 16
e 39 16
e 41 16
e 56 16
e 60 16
e 77 16
e 34 17
e 47 17
e 64 17
e 91 17
e 26 18
e 41 18
e 53 18
e 55 18
e 63 18
e 67 18
e 71 18
e 78 18
e 92 18
e 98 18
e 29 19
e 38 19
e 46 19
e 76 19
e 83 19
e 96 19
e 28 20
e 33 20
e 34 20
e 45 20
e 83 20
e 24 21
e 31 21
e 41 21
e 46 21
e 53 21
e 62 21
e 76 21
e 88 21
e 100 21
e 26 22
e 29 22
e 38 22
e 53 22
e 67 22
e 74 22
e 84 22
e 94 22
e 98 22
e 43 23
e 58 23
e 64 23
e 83 23
e 86 23
e 27 24
e 29 24
e 32 24
e 41 24
e 48 24
e 71 24
e 79 24
e 26 25
e 29 25
e 30 25
e 40 25
e 42 25
e 59 25
e 64 25
e 67 25
e 69 25
e 82 25
e 92 25
e 28 26
e 32 26
e 33 26
e 44 26
e 63 26
e 68 26
e 81 26
e 35 27
e 79 27
e 82 27
e 86 27
e 89 27
e 32 28
e 49 28
e 52 28
e 74 28
e 81 28
e 99 28
e 46 29
e 48 29
e 73 29
e 32 30
e 36 30
e 42 30
e 45 30
e 48 30
e 49 30
e 52 30
e 60 30
e 69 30
e 78 30
e 86 30
e 37 31
e 46 31
e 49 31
e 55 31
e 60 31
e 63 31
e 64 31
e 71 31
e 78 31
e 79 31
e 81 31
e 50 32
e 60 32
e 65 32
e 75 32
e 57 33
e 71 33
e 86 33
e 87 33
e 88 33
e 90 33
e 95 33
e 74 34
e 75 34
e 76 34
e 82 34
e 94 34
e 100 34
e 36 35
e 58 35
e 65 35
e 67 35
e 81 35
e 89 35
e 90 35
e 96 35
e 45 36
e 52 36
e 53 36
e 62 36
e 66 36
e 69 36
e 69 37
e 70 37
e 71 37
e 93 37
e 39 38
e 49 38
e 70 38
e 44 39
e 45 39
e 50 39
e 57 39
e 63 39
e 75 39
e 44 40
e 46 40
e 51 40
e 54 40
e 66 40
e 72 40
e 75 40
e 76 40
e 81 40
e 96 40
e 98 40
e 99 40
e 46 41
e 58 41
e 62 41
e 73 41
e 74 41
e 78 41
e 99 41
e 60 42
e 65 42
e 77 42
e 78 42
e 58 43
e 60 43
e 65 43
e 82 43
e 48 44
e 50 44
e 55 44
e 61 44
e 66 44
e 77 44
e 88 44
e 85 45
e 87 45
e 97 45
e 98 45
e 100 45
e 83 46
e 95 46
e 96 46
e 99 46
e 100 46
e 59 47
e 64 47
e 75 47
e 86 47
e 53 49
e 70 49
e 73 49
e 76 49
e 83 49
e 84 49
e 85 49
e 95 49
e 98 49
e 54 50
e 59 50
e 84 50
e 52 51
e 78 51
e 82 51
e 94 51
e 87 52
e 56 53
e 58 53
e 70 53
e 74 53
e 94 53
e 96 53
e 100 53
e 73 54
e 60 55
e 62 55
e 84 55
e 89 55
e 93 55
e 100 55
e 57 56
e 61 56
e 67 56
e 77 56
e 75 57
e 86 57
e 100 57
e 59 58
e 62 58
e 71 58
e 85 58
e 78 59
e 80 59
e 81 59
e 96 59
e 70 60
e 76 60
e 78 60
e 83 60
e 71 61
e 77 61
e 89 61
e 67 62
e 71 63
e 72 63
e 74 63
e 77 64
e 93 64
e 66 65
e 74 65
e 78 65
e 85 65
e 88 65
e 69 66
e 85 66
e 89 66
e 92 66
e 89 67
e 100 67
e 69 68
e 70 68
e 86 68
e 88 68
e 92 68
e 79 69
e 91 69
e 100 69
e 88 71
e 77 73
e 90 73
e 91 73
e 76 75
e 90 75
e 92 75
e 93 75
e 94 76
e 92 77
e 97 78
e 84 80
e 85 80
e 99 80
e 91 81
e 91 83
e 94 83
e 93 84
e 94 84
e 97 84
e 99 86
e 90 87
e 98 87
e 99 87
e 93 88
e 97 90
e 96 91
e 97 91
e 100 93
e 98 96
